p cnf 7230 15
-2328 -4150 4740 0
2328 -4741 0
-4740 4741 0
-4737 4739 0
4738 -4739 0
4736 -4738 0
-4102 4737 0
4102 -4736 0
4734 4735 0
4100 -4735 0
-4100 -4734 0
4150 -4741 0
4146 -4743 0
4142 -4743 0
4108 -4743 0
